SAT
Model:
1 -> false
2 -> true
3 -> false
4 -> false
5 -> true
6 -> true
7 -> true
8 -> true
9 -> false
10 -> true
11 -> true
12 -> false
13 -> false
14 -> false
15 -> false
16 -> false
17 -> true
18 -> true
19 -> false
20 -> false
21 -> true
22 -> true
23 -> true
24 -> true
25 -> false
26 -> false
27 -> false
28 -> false
29 -> true
30 -> true
31 -> true
32 -> true
33 -> true
34 -> true
35 -> true
36 -> false
37 -> false
38 -> false
39 -> true
40 -> false
41 -> false
42 -> true
43 -> true
44 -> false
45 -> false
46 -> true
47 -> true
48 -> false
49 -> false
50 -> false
51 -> true
52 -> true
53 -> false
54 -> false
55 -> true
56 -> true
57 -> true
58 -> true
59 -> true
60 -> true
61 -> true
62 -> false
63 -> false
64 -> false
65 -> false
66 -> true
67 -> false
68 -> false
69 -> true
70 -> true
71 -> false
72 -> false
73 -> true
74 -> false
75 -> true
